qViagens = 8;
qPontosCarga = 1;
qBetoneiras = 3;
M = 3000;
dp = [
[0],
[7],
[7],
[7],
[7],
[7],
[7],
[7]
];
dv = [
[0],
[7],
[7],
[7],
[7],
[7],
[7],
[7]
];
td = [0, 11.8, 15.7, 15.4, 12.8, 15.7, 16.8, 12.3];
tmaxvc = [0, 120, 120, 120, 120, 120, 120, 120];
hs = [0, 506.2, 902.7, 742.4, 549.9, 432.9, 459.1, 1111.1];
c = [
[0],
[40.5],
[52.2],
[76.6],
[60.7],
[79.5],
[56.3],
[47.4]
];
qvMax = [33];
cuve = [5.4];
